32      4       
17      18      14      13      
0       0       0       0       0       8       2       3       4       5       6       7       12      22      
6       3       0       0       3       6       9       13      14      15      18      21      
6       3       0       0       1       5       9       11      14      16      21      
5       3       0       1       0       3       9       10      14      
3       0       8       0       1       4       11      14      21      26      
9       0       1       4       0       2       8       9       
7       0       0       1       4       3       11      18      19      
3       1       0       3       0       6       19      20      21      23      25      26      
6       0       7       0       1       5       17      19      23      25      26      
7       0       0       1       2       5       15      17      21      23      31      
8       3       6       0       0       4       15      17      23      31      
7       17      0       7       0       2       14      26      
1       0       0       5       1       5       20      23      26      30      31      
6       0       1       0       9       2       19      20      
4       0       14      0       1       5       24      25      28      29      30      
6       0       0       6       6       3       20      26      29      
6       1       2       0       0       2       20      29      
5       0       0       1       5       2       20      29      
4       8       1       0       0       3       29      30      31      
8       8       1       0       0       2       24      28      
5       2       0       12      0       2       24      30      
7       0       0       3       3       2       24      31      
5       1       0       0       6       2       27      28      
3       0       0       5       5       1       27      
10      1       5       0       0       1       27      
4       0       6       1       0       1       28      
10      7       8       0       0       1       32      
3       4       0       1       0       1       32      
9       2       3       0       0       1       32      
7       0       4       0       1       1       32      
8       0       1       2       0       1       32      
0       0       0       0       0       0       
